p tw 34 325
0 1
0 2
0 3
0 4
0 12
0 14
0 5
0 6
0 21
0 18
0 20
0 23
0 16
0 32
0 9
0 11
0 29
0 7
0 15
0 24
0 17
0 25
0 33
0 8
0 31
0 27
1 2
1 3
1 4
1 7
1 13
1 14
1 15
1 16
1 6
1 29
1 12
1 20
1 24
1 31
1 5
1 21
2 3
2 4
2 8
2 17
2 5
2 12
2 13
2 16
2 23
2 27
2 28
2 6
2 21
2 9
2 15
2 29
2 14
2 31
3 4
3 8
3 17
3 6
3 15
3 29
3 16
3 20
3 21
3 32
3 22
3 23
3 25
3 27
4 12
4 18
4 19
4 20
4 5
4 8
4 15
4 22
4 6
4 29
4 9
4 31
4 17
4 11
4 32
4 7
4 24
5 6
5 7
5 8
5 9
5 12
5 13
5 16
5 23
5 15
5 22
5 14
5 30
5 19
5 25
5 31
5 21
5 29
5 24
5 28
5 11
5 27
6 7
6 8
6 9
6 15
6 29
6 14
6 16
6 30
6 21
6 22
6 19
6 26
6 28
6 32
7 8
7 9
7 10
7 11
7 12
7 13
7 14
7 15
7 16
7 19
7 24
7 20
7 26
7 17
8 9
8 10
8 11
8 12
8 17
8 15
8 22
8 21
8 23
8 25
8 26
8 13
8 16
8 27
8 28
8 20
8 18
8 31
8 19
8 14
8 32
9 21
9 23
9 25
9 26
9 18
9 22
9 31
9 19
9 15
9 17
9 29
9 11
9 28
9 33
9 16
9 20
9 27
9 32
10 11
10 12
10 20
10 22
10 26
10 32
11 12
11 19
11 28
11 31
11 33
11 29
11 32
11 18
11 21
11 27
11 30
12 18
12 19
12 20
12 21
12 22
12 13
12 16
12 23
12 14
12 15
12 24
12 26
12 31
12 25
12 28
12 30
12 27
13 14
13 15
13 16
13 23
13 21
13 24
13 27
13 28
14 15
14 16
14 30
14 20
14 24
14 31
14 18
14 23
14 17
14 19
14 28
15 16
15 22
15 29
15 17
15 24
15 28
16 23
16 27
16 28
16 30
16 20
16 21
16 32
16 22
16 29
16 19
16 26
16 31
17 29
17 19
17 20
17 25
17 33
18 19
18 20
18 22
18 31
18 23
18 25
18 26
18 28
18 30
18 21
19 20
19 24
19 23
19 25
19 31
19 28
19 33
19 21
19 26
19 32
20 21
20 22
20 26
20 24
20 31
20 23
20 32
21 22
21 23
21 24
21 25
21 26
21 32
21 28
22 31
22 23
22 25
22 27
22 29
22 30
22 26
22 32
23 24
23 25
23 26
23 31
23 27
24 31
24 28
25 26
25 31
25 27
25 28
25 30
25 33
26 32
26 28
26 30
27 28
27 30
27 31
27 32
28 31
28 33
28 30
28 32
29 30
29 32
31 33
31 32
